sat
(
  (define-fun x8_plus () Int
    0)
  (define-fun x3_minus () Int
    0)
  (define-fun x1_plus () Int
    0)
  (define-fun x1_minus () Int
    0)
  (define-fun x7_minus () Int
    0)
  (define-fun x6_plus () Int
    0)
  (define-fun x9_minus () Int
    0)
  (define-fun x0_plus () Int
    0)
  (define-fun x5_minus () Int
    0)
  (define-fun x0_minus () Int
    0)
  (define-fun x2_plus () Int
    0)
  (define-fun x2_minus () Int
    0)
  (define-fun x5_plus () Int
    0)
  (define-fun x9_plus () Int
    0)
  (define-fun x4_minus () Int
    0)
  (define-fun x7_plus () Int
    0)
  (define-fun x8_minus () Int
    0)
  (define-fun x4_plus () Int
    0)
  (define-fun x3_plus () Int
    0)
  (define-fun x6_minus () Int
    1)
)
